8026
42, 7, 2, 30, 29, 47, 26, 28, 27, 13, 14, 52, 11, 51, 12, 25, 46, 37, 40, 38, 48, 24, 5, 15, 6, 4, 43, 33, 10, 9, 8, 41, 19, 45, 3, 17, 18, 31, 22, 1, 32, 49, 39, 36, 35, 34, 44, 16, 50, 20, 23, 21
